/*********************************************
 * OPL 12.6.0.0 Data
 * Author: Adrian Rodriguez Bazaga, Pau Rodriguez Esmerats
 * Creation Date: 06/12/2017 at 23:03:02
 *********************************************/

nNurses=204;
maxConsec=2;
maxPresence=7;
maxHours=5;
minHours=1;
hours=24;
demand= [34 33 56 55 33 56 55 38 41 27 3 7 4 9 4 4 1 3 1 2 25 53 28 43  ];
